0.0 26.0 26.0 26.0 10.0 60.0 60.0 60.0 68.0 68.0 68.0 68.0 92.0 92.0 92.0 116.0 116.0 116.0 164.0 164.0 164.0 84.0 36.0 36.0 42.0 46.0 120.0 27.0 27.0 61.0 61.0 69.0 69.0 93.0 93.0 21.0 27.0 31.0 372.0 372.0 446.0 446.0 446.0
36.0 0.0 0.0 0.0 36.0 6.0 6.0 6.0 10.0 10.0 10.0 10.0 12.0 12.0 12.0 16.0 16.0 16.0 96.0 96.0 96.0 64.0 22.0 22.0 16.0 22.0 30.0 1.0 1.0 7.0 7.0 11.0 11.0 13.0 13.0 7.0 1.0 7.0 348.0 348.0 356.0 356.0 356.0
36.0 0.0 0.0 0.0 36.0 6.0 6.0 6.0 10.0 10.0 10.0 10.0 12.0 12.0 12.0 16.0 16.0 16.0 96.0 96.0 96.0 64.0 22.0 22.0 16.0 22.0 30.0 1.0 1.0 7.0 7.0 11.0 11.0 13.0 13.0 7.0 1.0 7.0 348.0 348.0 356.0 356.0 356.0
36.0 0.0 0.0 0.0 36.0 6.0 6.0 6.0 10.0 10.0 10.0 10.0 12.0 12.0 12.0 16.0 16.0 16.0 96.0 96.0 96.0 64.0 22.0 22.0 16.0 22.0 30.0 1.0 1.0 7.0 7.0 11.0 11.0 13.0 13.0 7.0 1.0 7.0 348.0 348.0 356.0 356.0 356.0
10.0 26.0 26.0 26.0 0.0 26.0 26.0 26.0 30.0 30.0 30.0 30.0 32.0 32.0 32.0 36.0 36.0 36.0 116.0 116.0 116.0 84.0 46.0 46.0 42.0 36.0 50.0 27.0 27.0 27.0 27.0 31.0 31.0 33.0 33.0 31.0 27.0 21.0 362.0 362.0 376.0 376.0 376.0
74.0 6.0 6.0 6.0 36.0 0.0 0.0 0.0 4.0 4.0 4.0 4.0 6.0 6.0 6.0 12.0 12.0 12.0 24.0 24.0 24.0 112.0 60.0 60.0 22.0 22.0 26.0 7.0 7.0 1.0 1.0 5.0 5.0 7.0 7.0 45.0 7.0 7.0 348.0 348.0 352.0 352.0 352.0
74.0 6.0 6.0 6.0 36.0 0.0 0.0 0.0 4.0 4.0 4.0 4.0 6.0 6.0 6.0 12.0 12.0 12.0 24.0 24.0 24.0 112.0 60.0 60.0 22.0 22.0 26.0 7.0 7.0 1.0 1.0 5.0 5.0 7.0 7.0 45.0 7.0 7.0 348.0 348.0 352.0 352.0 352.0
74.0 6.0 6.0 6.0 36.0 0.0 0.0 0.0 4.0 4.0 4.0 4.0 6.0 6.0 6.0 12.0 12.0 12.0 24.0 24.0 24.0 112.0 60.0 60.0 22.0 22.0 26.0 7.0 7.0 1.0 1.0 5.0 5.0 7.0 7.0 45.0 7.0 7.0 348.0 348.0 352.0 352.0 352.0
82.0 10.0 10.0 10.0 40.0 4.0 4.0 4.0 0.0 0.0 0.0 0.0 12.0 12.0 12.0 16.0 16.0 16.0 24.0 24.0 24.0 112.0 68.0 68.0 26.0 26.0 30.0 11.0 11.0 5.0 5.0 1.0 1.0 13.0 13.0 53.0 11.0 11.0 352.0 352.0 356.0 356.0 356.0
82.0 10.0 10.0 10.0 40.0 4.0 4.0 4.0 0.0 0.0 0.0 0.0 12.0 12.0 12.0 16.0 16.0 16.0 24.0 24.0 24.0 112.0 68.0 68.0 26.0 26.0 30.0 11.0 11.0 5.0 5.0 1.0 1.0 13.0 13.0 53.0 11.0 11.0 352.0 352.0 356.0 356.0 356.0
82.0 10.0 10.0 10.0 40.0 4.0 4.0 4.0 0.0 0.0 0.0 0.0 12.0 12.0 12.0 16.0 16.0 16.0 24.0 24.0 24.0 112.0 68.0 68.0 26.0 26.0 30.0 11.0 11.0 5.0 5.0 1.0 1.0 13.0 13.0 53.0 11.0 11.0 352.0 352.0 356.0 356.0 356.0
82.0 10.0 10.0 10.0 40.0 4.0 4.0 4.0 0.0 0.0 0.0 0.0 12.0 12.0 12.0 16.0 16.0 16.0 24.0 24.0 24.0 112.0 68.0 68.0 26.0 26.0 30.0 11.0 11.0 5.0 5.0 1.0 1.0 13.0 13.0 53.0 11.0 11.0 352.0 352.0 356.0 356.0 356.0
106.0 12.0 12.0 12.0 42.0 6.0 6.0 6.0 6.0 6.0 6.0 6.0 0.0 0.0 0.0 12.0 12.0 12.0 24.0 24.0 24.0 124.0 92.0 92.0 28.0 28.0 24.0 13.0 13.0 7.0 7.0 7.0 7.0 1.0 1.0 77.0 13.0 13.0 354.0 354.0 350.0 350.0 350.0
106.0 12.0 12.0 12.0 42.0 6.0 6.0 6.0 6.0 6.0 6.0 6.0 0.0 0.0 0.0 12.0 12.0 12.0 24.0 24.0 24.0 124.0 92.0 92.0 28.0 28.0 24.0 13.0 13.0 7.0 7.0 7.0 7.0 1.0 1.0 77.0 13.0 13.0 354.0 354.0 350.0 350.0 350.0
106.0 12.0 12.0 12.0 42.0 6.0 6.0 6.0 6.0 6.0 6.0 6.0 0.0 0.0 0.0 12.0 12.0 12.0 24.0 24.0 24.0 124.0 92.0 92.0 28.0 28.0 24.0 13.0 13.0 7.0 7.0 7.0 7.0 1.0 1.0 77.0 13.0 13.0 354.0 354.0 350.0 350.0 350.0
130.0 16.0 16.0 16.0 46.0 12.0 12.0 12.0 16.0 16.0 16.0 16.0 12.0 12.0 12.0 0.0 0.0 0.0 12.0 12.0 12.0 232.0 116.0 116.0 32.0 32.0 28.0 17.0 17.0 13.0 13.0 17.0 17.0 13.0 13.0 101.0 17.0 17.0 358.0 358.0 354.0 354.0 354.0
130.0 16.0 16.0 16.0 46.0 12.0 12.0 12.0 16.0 16.0 16.0 16.0 12.0 12.0 12.0 0.0 0.0 0.0 12.0 12.0 12.0 232.0 116.0 116.0 32.0 32.0 28.0 17.0 17.0 13.0 13.0 17.0 17.0 13.0 13.0 101.0 17.0 17.0 358.0 358.0 354.0 354.0 354.0
130.0 16.0 16.0 16.0 46.0 12.0 12.0 12.0 16.0 16.0 16.0 16.0 12.0 12.0 12.0 0.0 0.0 0.0 12.0 12.0 12.0 232.0 116.0 116.0 32.0 32.0 28.0 17.0 17.0 13.0 13.0 17.0 17.0 13.0 13.0 101.0 17.0 17.0 358.0 358.0 354.0 354.0 354.0
178.0 96.0 96.0 96.0 126.0 24.0 24.0 24.0 24.0 24.0 24.0 24.0 24.0 24.0 24.0 12.0 12.0 12.0 0.0 0.0 0.0 352.0 164.0 164.0 112.0 112.0 40.0 97.0 97.0 25.0 25.0 25.0 25.0 25.0 25.0 149.0 97.0 97.0 438.0 438.0 366.0 366.0 366.0
178.0 96.0 96.0 96.0 126.0 24.0 24.0 24.0 24.0 24.0 24.0 24.0 24.0 24.0 24.0 12.0 12.0 12.0 0.0 0.0 0.0 352.0 164.0 164.0 112.0 112.0 40.0 97.0 97.0 25.0 25.0 25.0 25.0 25.0 25.0 149.0 97.0 97.0 438.0 438.0 366.0 366.0 366.0
178.0 96.0 96.0 96.0 126.0 24.0 24.0 24.0 24.0 24.0 24.0 24.0 24.0 24.0 24.0 12.0 12.0 12.0 0.0 0.0 0.0 352.0 164.0 164.0 112.0 112.0 40.0 97.0 97.0 25.0 25.0 25.0 25.0 25.0 25.0 149.0 97.0 97.0 438.0 438.0 366.0 366.0 366.0
70.0 46.0 46.0 46.0 76.0 56.0 56.0 56.0 56.0 56.0 56.0 56.0 76.0 76.0 76.0 160.0 160.0 160.0 232.0 232.0 232.0 0.0 24.0 24.0 30.0 30.0 96.0 46.0 46.0 56.0 56.0 56.0 56.0 76.0 76.0 40.0 46.0 46.0 380.0 380.0 446.0 446.0 446.0
46.0 22.0 22.0 22.0 56.0 56.0 56.0 56.0 64.0 64.0 64.0 64.0 88.0 88.0 88.0 112.0 112.0 112.0 160.0 160.0 160.0 48.0 0.0 0.0 6.0 10.0 84.0 22.0 22.0 56.0 56.0 64.0 64.0 88.0 88.0 16.0 22.0 26.0 360.0 360.0 434.0 434.0 434.0
46.0 22.0 22.0 22.0 56.0 56.0 56.0 56.0 64.0 64.0 64.0 64.0 88.0 88.0 88.0 112.0 112.0 112.0 160.0 160.0 160.0 48.0 0.0 0.0 6.0 10.0 84.0 22.0 22.0 56.0 56.0 64.0 64.0 88.0 88.0 16.0 22.0 26.0 360.0 360.0 434.0 434.0 434.0
52.0 16.0 16.0 16.0 52.0 22.0 22.0 22.0 26.0 26.0 26.0 26.0 28.0 28.0 28.0 32.0 32.0 32.0 112.0 112.0 112.0 48.0 6.0 6.0 0.0 6.0 14.0 16.0 16.0 22.0 22.0 26.0 26.0 28.0 28.0 22.0 16.0 22.0 356.0 356.0 364.0 364.0 364.0
56.0 22.0 22.0 22.0 46.0 22.0 22.0 22.0 26.0 26.0 26.0 26.0 28.0 28.0 28.0 32.0 32.0 32.0 112.0 112.0 112.0 48.0 10.0 10.0 6.0 0.0 14.0 22.0 22.0 22.0 22.0 26.0 26.0 28.0 28.0 26.0 22.0 16.0 350.0 350.0 364.0 364.0 364.0
134.0 30.0 30.0 30.0 60.0 26.0 26.0 26.0 30.0 30.0 30.0 30.0 24.0 24.0 24.0 22.0 22.0 22.0 40.0 40.0 40.0 144.0 88.0 88.0 14.0 14.0 0.0 30.0 30.0 26.0 26.0 30.0 30.0 24.0 24.0 104.0 30.0 30.0 364.0 364.0 350.0 350.0 350.0
37.0 1.0 1.0 1.0 37.0 7.0 7.0 7.0 11.0 11.0 11.0 11.0 13.0 13.0 13.0 17.0 17.0 17.0 97.0 97.0 97.0 64.0 22.0 22.0 16.0 22.0 30.0 0.0 0.0 6.0 6.0 10.0 10.0 12.0 12.0 14.0 8.0 14.0 348.0 348.0 356.0 356.0 356.0
37.0 1.0 1.0 1.0 37.0 7.0 7.0 7.0 11.0 11.0 11.0 11.0 13.0 13.0 13.0 17.0 17.0 17.0 97.0 97.0 97.0 64.0 22.0 22.0 16.0 22.0 30.0 0.0 0.0 6.0 6.0 10.0 10.0 12.0 12.0 14.0 8.0 14.0 348.0 348.0 356.0 356.0 356.0
75.0 7.0 7.0 7.0 37.0 1.0 1.0 1.0 5.0 5.0 5.0 5.0 7.0 7.0 7.0 13.0 13.0 13.0 25.0 25.0 25.0 112.0 60.0 60.0 22.0 22.0 26.0 6.0 6.0 0.0 0.0 4.0 4.0 6.0 6.0 52.0 14.0 14.0 348.0 348.0 352.0 352.0 352.0
75.0 7.0 7.0 7.0 37.0 1.0 1.0 1.0 5.0 5.0 5.0 5.0 7.0 7.0 7.0 13.0 13.0 13.0 25.0 25.0 25.0 112.0 60.0 60.0 22.0 22.0 26.0 6.0 6.0 0.0 0.0 4.0 4.0 6.0 6.0 52.0 14.0 14.0 348.0 348.0 352.0 352.0 352.0
83.0 11.0 11.0 11.0 41.0 5.0 5.0 5.0 1.0 1.0 1.0 1.0 13.0 13.0 13.0 17.0 17.0 17.0 25.0 25.0 25.0 112.0 68.0 68.0 26.0 26.0 30.0 10.0 10.0 4.0 4.0 0.0 0.0 12.0 12.0 60.0 18.0 18.0 352.0 352.0 356.0 356.0 356.0
83.0 11.0 11.0 11.0 41.0 5.0 5.0 5.0 1.0 1.0 1.0 1.0 13.0 13.0 13.0 17.0 17.0 17.0 25.0 25.0 25.0 112.0 68.0 68.0 26.0 26.0 30.0 10.0 10.0 4.0 4.0 0.0 0.0 12.0 12.0 60.0 18.0 18.0 352.0 352.0 356.0 356.0 356.0
107.0 13.0 13.0 13.0 43.0 7.0 7.0 7.0 7.0 7.0 7.0 7.0 1.0 1.0 1.0 13.0 13.0 13.0 25.0 25.0 25.0 124.0 92.0 92.0 28.0 28.0 24.0 12.0 12.0 6.0 6.0 6.0 6.0 0.0 0.0 84.0 20.0 20.0 354.0 354.0 350.0 350.0 350.0
107.0 13.0 13.0 13.0 43.0 7.0 7.0 7.0 7.0 7.0 7.0 7.0 1.0 1.0 1.0 13.0 13.0 13.0 25.0 25.0 25.0 124.0 92.0 92.0 28.0 28.0 24.0 12.0 12.0 6.0 6.0 6.0 6.0 0.0 0.0 84.0 20.0 20.0 354.0 354.0 350.0 350.0 350.0
31.0 7.0 7.0 7.0 41.0 41.0 41.0 41.0 49.0 49.0 49.0 49.0 73.0 73.0 73.0 97.0 97.0 97.0 145.0 145.0 145.0 64.0 16.0 16.0 22.0 26.0 100.0 14.0 14.0 48.0 48.0 56.0 56.0 80.0 80.0 0.0 6.0 10.0 352.0 352.0 426.0 426.0 426.0
37.0 1.0 1.0 1.0 37.0 7.0 7.0 7.0 11.0 11.0 11.0 11.0 13.0 13.0 13.0 17.0 17.0 17.0 97.0 97.0 97.0 64.0 22.0 22.0 16.0 22.0 30.0 8.0 8.0 14.0 14.0 18.0 18.0 20.0 20.0 6.0 0.0 6.0 348.0 348.0 356.0 356.0 356.0
41.0 7.0 7.0 7.0 31.0 7.0 7.0 7.0 11.0 11.0 11.0 11.0 13.0 13.0 13.0 17.0 17.0 17.0 97.0 97.0 97.0 64.0 26.0 26.0 22.0 16.0 30.0 14.0 14.0 14.0 14.0 18.0 18.0 20.0 20.0 10.0 6.0 0.0 342.0 342.0 356.0 356.0 356.0
5048.0 5014.0 5014.0 5014.0 5038.0 5014.0 5014.0 5014.0 5018.0 5018.0 5018.0 5018.0 5020.0 5020.0 5020.0 5024.0 5024.0 5024.0 5104.0 5104.0 5104.0 5064.0 5026.0 5026.0 5022.0 5016.0 5030.0 5014.0 5014.0 5014.0 5014.0 5018.0 5018.0 5020.0 5020.0 5018.0 5014.0 5008.0 0.0 0.0 14.0 14.0 14.0
5048.0 5014.0 5014.0 5014.0 5038.0 5014.0 5014.0 5014.0 5018.0 5018.0 5018.0 5018.0 5020.0 5020.0 5020.0 5024.0 5024.0 5024.0 5104.0 5104.0 5104.0 5064.0 5026.0 5026.0 5022.0 5016.0 5030.0 5014.0 5014.0 5014.0 5014.0 5018.0 5018.0 5020.0 5020.0 5018.0 5014.0 5008.0 0.0 0.0 14.0 14.0 14.0
5126.0 5022.0 5022.0 5022.0 5052.0 5018.0 5018.0 5018.0 5022.0 5022.0 5022.0 5022.0 5016.0 5016.0 5016.0 5014.0 5014.0 5014.0 5032.0 5032.0 5032.0 5160.0 5104.0 5104.0 5030.0 5030.0 5016.0 5022.0 5022.0 5018.0 5018.0 5022.0 5022.0 5016.0 5016.0 5096.0 5022.0 5022.0 14.0 14.0 0.0 0.0 0.0
5126.0 5022.0 5022.0 5022.0 5052.0 5018.0 5018.0 5018.0 5022.0 5022.0 5022.0 5022.0 5016.0 5016.0 5016.0 5014.0 5014.0 5014.0 5032.0 5032.0 5032.0 5160.0 5104.0 5104.0 5030.0 5030.0 5016.0 5022.0 5022.0 5018.0 5018.0 5022.0 5022.0 5016.0 5016.0 5096.0 5022.0 5022.0 14.0 14.0 0.0 0.0 0.0
5126.0 5022.0 5022.0 5022.0 5052.0 5018.0 5018.0 5018.0 5022.0 5022.0 5022.0 5022.0 5016.0 5016.0 5016.0 5014.0 5014.0 5014.0 5032.0 5032.0 5032.0 5160.0 5104.0 5104.0 5030.0 5030.0 5016.0 5022.0 5022.0 5018.0 5018.0 5022.0 5022.0 5016.0 5016.0 5096.0 5022.0 5022.0 14.0 14.0 0.0 0.0 0.0
